data/solutions/planning/wellformed/intermediate/weighting/wellformed_intermediate_instance3_gurobi.sol
Elapsed time: 5.01
Nodes explored: 18502
Nodes left: 3
Relative gap: 0.0
Upper bound: 11446332.0
Lower bound: 11446332
C[0]=11189.0
C[1]=11189.0
C[2]=11189.0
C[3]=11189.0
C[4]=11189.0
C[5]=11189.0
C[6]=11188.0
C[7]=11188.0
C[8]=11188.0
C[9]=11188.0
y[0]=6
y[1]=7
y[2]=9
y[3]=5
y[4]=0
y[5]=5
y[6]=3
y[7]=3
y[8]=4
y[9]=9
y[10]=4
y[11]=1
y[12]=6
y[13]=4
y[14]=9
y[15]=2
y[16]=5
y[17]=1
y[18]=1
y[19]=2
y[20]=1
y[21]=4
y[22]=1
y[23]=2
y[24]=3
y[25]=5
y[26]=1
y[27]=5
y[28]=1
y[29]=2
y[30]=1
y[31]=6
y[32]=8
y[33]=9
y[34]=8
y[35]=7
y[36]=0
y[37]=5
y[38]=4
y[39]=1
y[40]=4
y[41]=7
y[42]=1
y[43]=4
y[44]=7
y[45]=8
y[46]=5
y[47]=1
y[48]=9
y[49]=7
y[50]=8
y[51]=0
y[52]=8
y[53]=3
y[54]=2
y[55]=3
y[56]=8
y[57]=9
y[58]=6
y[59]=4
y[60]=8
y[61]=5
y[62]=0
y[63]=7
y[64]=0
y[65]=6
y[66]=2
y[67]=3
y[68]=0
y[69]=6
y[70]=1
y[71]=9
y[72]=1
y[73]=7
y[74]=9
y[75]=4
y[76]=3
y[77]=0
y[78]=1
y[79]=0
y[80]=8
y[81]=1
y[82]=7
y[83]=8
y[84]=2
y[85]=8
y[86]=6
y[87]=3
y[88]=1
y[89]=5
y[90]=2
y[91]=4
y[92]=9
y[93]=2
y[94]=9
y[95]=7
y[96]=8
y[97]=6
y[98]=9
y[99]=7
